[2026-03-01T01:30:29] Logging to: /run/media/saveas/Secondary-Storage/Masters/CS234/CS234_Reinforcement_Learning/Final Project/CS234_Final_Project/results/trajectory_optimization/nlp/TRACK1_280m/base/run_trajopt_demo_output.log
======================================================================
IPOPT TRAJECTORY OPTIMIZATION DEMO (SINGLE STAGE)
======================================================================

1. Loading track: /run/media/saveas/Secondary-Storage/Masters/CS234/CS234_Reinforcement_Learning/Final Project/CS234_Final_Project/maps/TRACK1_280m.mat
   Track length: 280.0 m

2. Creating vehicle model...
   Vehicle: SingleTrackModel(VW_Golf_GTI, weight_transfer=enabled)

3. Loaded obstacles from map: 0

4. Setup:
   N = 120
   ds = 2.33 m
   Obstacle subsamples/segment = 7
   Obstacle enforce midpoints = False
   Obstacle use slack = False
   Track buffer = 0.00 m
   lambda_u = 0.005
   vehicle_radius_m = 0.00
   eps_s = 0.100, eps_kappa = 0.050
   Solver path = Python/CasADi (IPOPT)

======================================================================
SINGLE STAGE: COMBINED OBJECTIVE (ACCEPTANCE-GATED)
======================================================================
Acceptance gates: success=True, max_slack<=0.000e+00, min_clearance>=-0.0010 m
Acceptance policy: practical epsilon mode (allows tiny negative dense clearance).
Initializer: obstacle_aware_init=True, sigma=8.00 m, margin=0.30 m

Attempt 1/4: baseline
  N=120, ds=2.333 m, subsamples=7, obstacle_clearance_m=0.000

******************************************************************************
This program contains Ipopt, a library for large-scale nonlinear optimization.
 Ipopt is released as open source code under the Eclipse Public License (EPL).
         For more information visit https://github.com/coin-or/Ipopt
******************************************************************************

This is Ipopt version 3.14.11, running with linear solver MUMPS 5.4.1.

Number of nonzeros in equality constraint Jacobian...:    12225
Number of nonzeros in inequality constraint Jacobian.:     1550
Number of nonzeros in Lagrangian Hessian.............:     4432

Total number of variables............................:     1210
                     variables with only lower bounds:        0
                variables with lower and upper bounds:        0
                     variables with only upper bounds:        0
Total number of equality constraints.................:      970
Total number of inequality constraints...............:     1259
        inequality constraints with only lower bounds:      775
   inequality constraints with lower and upper bounds:        0
        inequality constraints with only upper bounds:      484

iter    objective    inf_pr   inf_du lg(mu)  ||d||  lg(rg) alpha_du alpha_pr  ls
   0  2.8000000e+01 1.94e-01 1.06e+00  -1.0 0.00e+00    -  0.00e+00 0.00e+00   0
   1  2.7895564e+01 1.83e+00 1.34e+03  -1.0 6.65e+00   2.0 7.10e-01 1.00e+00H  1
   2  2.7895952e+01 1.91e+00 9.84e+02  -1.0 1.95e-01   3.3 6.92e-01 2.50e-01h  3
   3  2.7897716e+01 1.73e+00 2.54e+03  -1.0 3.92e-01   3.8 1.00e+00 1.25e-01h  4
   4  2.7914116e+01 8.90e-01 8.84e+03  -1.0 2.85e-01   3.3 1.00e+00 1.00e+00h  1
   5  2.7930538e+01 1.74e-01 6.24e+03  -1.0 2.30e-01   2.8 1.00e+00 1.00e+00h  1
   6  2.7937099e+01 5.86e-02 6.79e+02  -1.0 9.67e-02   2.3 1.00e+00 1.00e+00h  1
   7  2.7937050e+01 5.79e-02 6.37e+02  -1.0 3.30e-02   1.8 1.00e+00 6.25e-02h  5
   8  2.7937068e+01 1.66e-02 4.51e+00  -1.0 4.75e-03   2.3 1.00e+00 1.00e+00h  1
   9  2.7936748e+01 3.86e-05 1.31e-01  -1.0 1.65e-03   1.8 1.00e+00 1.00e+00h  1
iter    objective    inf_pr   inf_du lg(mu)  ||d||  lg(rg) alpha_du alpha_pr  ls
  10  2.7936162e+01 2.06e-06 1.22e-02  -2.5 5.86e-04   1.3 1.00e+00 1.00e+00h  1
  11  2.7934446e+01 1.38e-05 1.19e-02  -3.8 1.71e-03   0.8 1.00e+00 1.00e+00h  1
  12  2.7929302e+01 1.25e-04 1.19e-02  -3.8 5.14e-03   0.4 1.00e+00 1.00e+00h  1
  13  2.7913893e+01 1.13e-03 1.19e-02  -3.8 1.54e-02  -0.1 1.00e+00 1.00e+00h  1
  14  2.7867888e+01 9.77e-03 1.18e-02  -3.8 4.60e-02  -0.6 1.00e+00 1.00e+00h  1
  15  2.7732163e+01 8.18e-02 1.36e-02  -3.8 1.36e-01  -1.1 1.00e+00 1.00e+00h  1
  16  2.7341606e+01 1.49e-01 3.19e-02  -3.8 3.91e-01  -1.5 1.00e+00 1.00e+00h  1
  17  2.6455228e+01 1.30e+00 2.48e-02  -3.8 1.29e+02    -  2.03e-02 1.90e-02f  1
  18  2.5502655e+01 9.18e-01 3.47e-02  -3.8 1.30e+00  -2.0 1.00e+00 1.00e+00h  1
  19  2.5314343e+01 9.49e-01 7.14e-02  -3.8 5.69e-01  -1.6 1.00e+00 6.21e-01h  1
iter    objective    inf_pr   inf_du lg(mu)  ||d||  lg(rg) alpha_du alpha_pr  ls
  20  2.4568268e+01 1.44e+00 3.93e-02  -3.8 1.42e+00  -2.1 5.40e-01 8.41e-01h  1
  21  2.4385663e+01 1.33e+00 9.76e-02  -3.8 3.09e+00  -2.5 4.68e-01 8.29e-02h  1
  22  2.4232519e+01 1.10e+00 9.33e-02  -3.8 1.14e+00  -2.1 7.04e-01 1.76e-01h  1
  23  2.3852085e+01 4.13e+00 1.15e-01  -3.8 9.01e+00  -2.6 7.45e-02 1.53e-01h  1
  24  2.3669532e+01 3.15e+00 8.55e-02  -3.8 2.22e+00  -2.2 9.89e-01 2.10e-01h  1
  25  2.2865728e+01 2.72e+00 6.64e-02  -3.8 3.28e+00  -2.7 1.00e+00 3.48e-01h  1
  26  2.2028704e+01 3.39e+00 3.73e-02  -3.8 1.66e+00  -2.2 1.00e+00 1.00e+00h  1
  27  2.1938659e+01 2.20e+00 6.00e-02  -3.8 2.92e+00  -1.8 1.78e-01 3.66e-01h  1
  28  2.1894451e+01 1.37e+00 6.04e-02  -3.8 1.34e+00  -1.4 1.00e+00 6.33e-01h  1
  29  2.1652331e+01 7.15e-01 5.80e-02  -3.8 7.74e-01  -1.9 1.00e+00 8.31e-01h  1
iter    objective    inf_pr   inf_du lg(mu)  ||d||  lg(rg) alpha_du alpha_pr  ls
  30  2.1594086e+01 3.11e-01 3.20e-02  -3.8 3.37e-01  -1.4 1.00e+00 5.58e-01h  1
  31  2.1373818e+01 2.97e-01 9.03e-03  -3.8 6.62e-01  -1.9 1.00e+00 6.78e-01h  1
  32  2.1361805e+01 6.02e-02 4.07e-02  -3.8 7.57e-02  -0.6 1.00e+00 1.00e+00h  1
  33  2.1316209e+01 1.08e-03 4.08e-03  -3.8 4.59e-02  -1.1 1.00e+00 1.00e+00h  1
  34  2.1200902e+01 9.88e-03 4.00e-03  -3.8 1.34e-01  -1.5 1.00e+00 8.64e-01h  1
  35  2.0825170e+01 2.22e-01 3.74e-03  -3.8 3.78e-01  -2.0 1.00e+00 1.00e+00f  1
  36  2.0425978e+01 1.23e-01 4.23e-03  -3.8 1.10e+00  -2.5 1.00e+00 4.19e-01h  1
  37  1.8594330e+01 2.44e+00 2.96e-02  -3.8 3.98e+00  -3.0 1.00e+00 8.50e-01f  1
  38  1.8539655e+01 6.73e+00 6.47e-02  -3.8 5.74e+00  -2.5 1.95e-01 1.71e-01h  1
  39  1.8576393e+01 3.23e+00 6.66e-02  -3.8 2.63e+00  -1.2 2.03e-01 1.13e-01h  1
iter    objective    inf_pr   inf_du lg(mu)  ||d||  lg(rg) alpha_du alpha_pr  ls
  40  1.8727528e+01 1.28e+00 8.06e-02  -3.8 2.02e+00  -1.7 3.67e-01 6.16e-01h  1
  41  1.8707314e+01 1.60e+00 7.57e-02  -3.8 1.70e+00  -2.2 1.00e+00 3.53e-01h  1
  42  1.8723620e+01 1.25e+00 4.90e-02  -3.8 8.78e-01  -0.8 3.39e-01 1.91e-01h  1
  43  1.8773550e+01 4.16e-01 6.36e-01  -3.8 7.94e-01  -1.3 1.34e-01 1.00e+00h  1
  44  1.8719890e+01 1.97e-01 2.30e-01  -3.8 2.22e-01  -1.8 8.97e-01 6.71e-01h  1
  45  1.8644077e+01 3.06e-01 1.33e-01  -3.8 8.25e-01  -2.3 1.00e+00 3.54e-01h  1
  46  1.8172521e+01 3.80e+00 2.25e-02  -3.8 3.27e+00  -2.7 9.04e-01 8.31e-01h  1
  47  1.8175064e+01 3.49e+00 7.09e-02  -3.8 2.74e+00  -1.4 7.69e-02 1.27e-01h  1
  48  1.8165698e+01 2.30e+00 8.71e-02  -3.8 2.70e+00  -1.9 7.23e-01 3.69e-01h  1
  49  1.8066172e+01 9.23e-01 6.57e-02  -3.8 2.53e+00  -2.4 1.00e+00 6.75e-01h  1
iter    objective    inf_pr   inf_du lg(mu)  ||d||  lg(rg) alpha_du alpha_pr  ls
  50  1.8014381e+01 9.75e-01 1.62e-02  -3.8 8.74e-01  -1.9 1.00e+00 1.00e+00h  1
  51  1.7849479e+01 1.66e+00 1.65e-02  -3.8 1.42e+00  -2.4 1.00e+00 9.71e-01h  1
  52  1.7793506e+01 1.05e+00 1.01e-02  -3.8 3.04e-01  -2.0 1.00e+00 1.00e+00h  1
  53  1.7670448e+01 4.00e-01 2.10e-02  -3.8 1.15e+00  -2.5 1.00e+00 7.72e-01h  1
  54  1.7636948e+01 7.25e-01 3.27e-02  -3.8 7.80e-01  -2.0 1.00e+00 5.61e-01h  1
  55  1.7585417e+01 6.01e-01 1.71e-02  -3.8 1.78e+00  -2.5 3.35e-01 3.19e-01h  1
  56  1.7558597e+01 4.07e-01 1.12e-02  -3.8 4.00e-01  -2.1 1.00e+00 6.06e-01h  1
  57  1.7523874e+01 1.34e+00 2.84e-02  -3.8 4.20e+00  -2.6 2.23e-01 1.79e-01h  1
  58  1.7514978e+01 1.08e+00 2.28e-02  -3.8 8.41e-01  -2.1 1.00e+00 1.93e-01h  1
  59  1.7470768e+01 7.14e-01 1.89e-02  -3.8 1.62e+00  -2.6 1.00e+00 3.44e-01h  1
iter    objective    inf_pr   inf_du lg(mu)  ||d||  lg(rg) alpha_du alpha_pr  ls
  60  1.7422691e+01 5.59e-01 1.49e-02  -3.8 8.59e-01  -2.2 1.00e+00 1.00e+00h  1
  61  1.7404166e+01 1.44e-01 7.98e-03  -3.8 1.85e-01  -1.8 1.00e+00 1.00e+00h  1
  62  1.7349088e+01 8.72e-01 5.68e-03  -3.8 5.94e-01  -2.2 1.00e+00 1.00e+00h  1
  63  1.7289778e+01 5.75e-01 1.45e-02  -3.8 6.95e-01  -2.7 9.88e-01 4.63e-01h  1
  64  1.7254388e+01 1.23e-01 1.11e-02  -3.8 4.87e-01  -2.3 1.00e+00 9.12e-01h  1
  65  1.7239464e+01 2.68e-02 1.62e-03  -3.8 9.60e-02  -1.9 1.00e+00 1.00e+00h  1
  66  1.7194812e+01 4.07e-01 2.38e-03  -3.8 2.69e-01  -2.3 1.00e+00 1.00e+00h  1
  67  1.7090998e+01 1.90e+00 4.52e-03  -3.8 1.49e+00  -2.8 5.76e-01 9.25e-01h  1
  68  1.7075986e+01 1.01e+00 4.15e-03  -3.8 1.26e+00  -2.4 4.55e-01 4.75e-01h  1
  69  1.6980751e+01 1.82e+00 2.69e-02  -3.8 2.26e+00  -2.9 1.00e+00 1.00e+00h  1
iter    objective    inf_pr   inf_du lg(mu)  ||d||  lg(rg) alpha_du alpha_pr  ls
  70  1.6982115e+01 2.75e+00 7.34e-01  -3.8 1.10e+00  -0.6 3.92e-01 1.00e+00h  1
  71  1.6984003e+01 1.50e+00 1.97e-01  -3.8 1.56e+00  -1.1 3.84e-01 1.00e+00h  1
  72  1.6982348e+01 2.77e+00 1.58e+01  -3.8 6.67e-01   0.2 1.00e+00 1.00e+00h  1
  73  1.6983017e+01 1.84e+00 9.30e+00  -3.8 1.38e+00   0.6 1.00e+00 5.00e-01h  2
  74  1.6982217e+01 2.98e+00 8.09e+01  -3.8 8.67e-01   2.0 8.72e-01 1.00e+00h  1
  75  1.6982440e+01 2.21e+00 4.95e+02  -3.8 2.33e+00   1.5 9.59e-01 2.50e-01h  3
  76  1.6981827e+01 1.30e+00 3.47e+03  -3.8 1.33e+00   1.9 1.00e+00 7.45e-01h  1
  77  1.6981650e+01 2.25e-01 4.40e+03  -3.8 1.79e-01   3.2 1.00e+00 1.00e+00h  1
  78  1.6981868e+01 6.32e-02 1.56e+03  -3.8 2.14e-02   3.7 7.59e-01 1.00e+00h  1
  79  1.6981731e+01 1.26e-01 1.57e+02  -3.8 9.69e-02   3.2 1.00e+00 1.00e+00h  1
iter    objective    inf_pr   inf_du lg(mu)  ||d||  lg(rg) alpha_du alpha_pr  ls
  80  1.6981873e+01 1.90e-02 2.03e+03  -3.8 8.93e-02   3.6 1.00e+00 1.00e+00h  1
  81  1.6981894e+01 4.74e-03 3.16e+02  -3.8 8.45e-03   4.0 1.00e+00 1.00e+00h  1
  82  1.6981894e+01 7.31e-05 7.40e+00  -3.8 1.04e-03   3.6 1.00e+00 1.00e+00h  1
  83  1.6981894e+01 1.02e-08 2.36e-02  -3.8 1.93e-05   3.1 1.00e+00 1.00e+00h  1
  84  1.6981893e+01 1.08e-09 2.10e-03  -3.8 5.13e-06   2.6 1.00e+00 1.00e+00h  1
  85  1.6981892e+01 9.67e-09 2.10e-03  -3.8 1.54e-05   2.1 1.00e+00 1.00e+00h  1
  86  1.6981887e+01 8.69e-08 2.10e-03  -3.8 4.62e-05   1.7 1.00e+00 1.00e+00h  1
  87  1.6981875e+01 7.77e-07 2.10e-03  -3.8 1.39e-04   1.2 1.00e+00 1.00e+00h  1
  88  1.6981837e+01 6.85e-06 2.10e-03  -3.8 4.15e-04   0.7 1.00e+00 1.00e+00h  1
  89  1.6981723e+01 5.71e-05 2.09e-03  -3.8 1.24e-03   0.2 1.00e+00 1.00e+00h  1
iter    objective    inf_pr   inf_du lg(mu)  ||d||  lg(rg) alpha_du alpha_pr  ls
  90  1.6981385e+01 3.73e-04 2.08e-03  -3.8 3.71e-03  -0.3 1.00e+00 1.00e+00h  1
  91  1.6980409e+01 1.04e-03 2.06e-03  -3.8 1.10e-02  -0.7 1.00e+00 1.00e+00h  1
  92  1.6977703e+01 1.42e-03 2.07e-03  -3.8 3.31e-02  -1.2 1.00e+00 1.00e+00h  1
  93  1.6970397e+01 2.12e-02 2.14e-03  -3.8 1.03e-01  -1.7 1.00e+00 1.00e+00h  1
  94  1.6950367e+01 1.52e-01 6.29e-03  -3.8 3.63e-01  -2.2 1.00e+00 1.00e+00h  1
  95  1.6940210e+01 3.50e+00 7.30e-03  -3.8 2.80e-01  -1.7 1.00e+00 1.00e+00h  1
  96  1.6932202e+01 3.80e+00 6.62e-02  -3.8 2.36e+00  -2.2 6.37e-01 6.40e-01h  1
  97  1.6931457e+01 1.43e+00 2.23e-01  -3.8 7.86e-01  -0.9 1.00e+00 8.22e-01h  1
  98  1.6927547e+01 1.01e+00 2.90e+00  -3.8 9.53e-01  -1.4 1.00e+00 7.57e-01h  1
  99  1.6928058e+01 1.17e+00 4.77e-01  -3.8 1.65e-01  -0.0 8.94e-01 1.00e+00h  1
iter    objective    inf_pr   inf_du lg(mu)  ||d||  lg(rg) alpha_du alpha_pr  ls
 100  1.6927920e+01 1.89e-01 2.63e-01  -3.8 9.67e-02  -0.5 1.00e+00 1.00e+00h  1
 101  1.6926877e+01 5.37e-03 1.23e-02  -3.8 1.87e-02  -1.0 1.00e+00 1.00e+00h  1
 102  1.6923604e+01 2.18e-02 3.01e-03  -3.8 3.21e-02  -1.5 1.00e+00 1.00e+00h  1
 103  1.6914204e+01 2.86e-02 1.54e-03  -3.8 7.46e-02  -1.9 1.00e+00 1.00e+00h  1
 104  1.6888819e+01 4.76e-02 1.73e-03  -3.8 2.23e-01  -2.4 1.00e+00 1.00e+00h  1
 105  1.6827220e+01 2.32e+00 5.72e-03  -3.8 1.01e+00  -2.9 1.00e+00 1.00e+00h  1
 106  1.6807900e+01 2.50e+00 1.74e-02  -3.8 5.08e-01  -2.5 1.00e+00 1.00e+00h  1
 107  1.6754616e+01 1.33e+00 1.36e-02  -3.8 9.05e-01  -2.9 1.00e+00 1.00e+00h  1
 108  1.6665273e+01 9.23e-01 1.41e-02  -3.8 2.71e+00  -3.4 1.00e+00 7.78e-01h  1
 109  1.6671200e+01 1.02e+00 6.62e-02  -3.8 4.79e-01  -2.1 5.61e-01 1.00e+00h  1
iter    objective    inf_pr   inf_du lg(mu)  ||d||  lg(rg) alpha_du alpha_pr  ls
 110  1.6671263e+01 2.63e-01 4.14e-02  -3.8 2.21e-01  -0.8 8.45e-01 1.00e+00h  1
 111  1.6671085e+01 2.21e-01 3.70e-01  -3.8 5.63e-02  -0.3 1.00e+00 1.00e+00h  1
 112  1.6670580e+01 1.89e-02 5.58e-02  -3.8 3.65e-02  -0.8 1.00e+00 1.00e+00h  1
 113  1.6669287e+01 9.68e-03 1.89e-03  -3.8 3.69e-02  -1.3 1.00e+00 1.00e+00h  1
 114  1.6666000e+01 2.41e-01 4.55e-03  -3.8 6.96e-02  -1.8 1.00e+00 1.00e+00h  1
 115  1.6629496e+01 9.41e-01 1.21e-02  -3.8 7.12e+00    -  7.50e-01 2.02e-01h  1
 116  1.6617659e+01 1.26e+00 1.44e-02  -3.8 1.86e+01    -  3.19e-01 1.16e-01h  1
 117  1.6618677e+01 2.85e-01 4.97e-03  -3.8 8.73e-01  -2.2 1.00e+00 1.00e+00h  1
 118  1.6612155e+01 2.74e-01 9.55e-03  -3.8 2.26e-01  -2.7 1.00e+00 1.00e+00h  1
 119  1.6602094e+01 4.69e-01 2.69e-03  -3.8 9.39e-01  -3.2 1.00e+00 1.00e+00h  1
iter    objective    inf_pr   inf_du lg(mu)  ||d||  lg(rg) alpha_du alpha_pr  ls
 120  1.6600039e+01 1.55e-01 1.12e-02  -3.8 5.40e-01  -2.8 1.00e+00 1.00e+00h  1
 121  1.6594669e+01 8.06e-01 1.37e-02  -3.8 5.55e+00  -3.3 4.54e-01 2.65e-01h  1
 122  1.6594683e+01 6.55e-01 5.00e-02  -3.8 3.91e-01  -1.9 1.00e+00 1.00e+00h  1
 123  1.6592931e+01 1.20e-01 2.66e-02  -3.8 1.71e-01  -2.4 1.00e+00 1.00e+00h  1
 124  1.6588131e+01 3.05e-01 5.67e-03  -3.8 8.21e-01  -2.9 1.00e+00 1.00e+00h  1
 125  1.6581993e+01 3.33e-01 9.49e-03  -3.8 1.98e+00  -3.4 6.33e-01 3.42e-01h  1
 126  1.6574677e+01 6.06e-01 1.71e-02  -3.8 1.78e+01  -3.8 9.03e-02 4.67e-02h  1
 127  1.6562047e+01 1.64e+00 9.15e-03  -3.8 1.95e+00  -3.4 6.70e-01 8.30e-01h  1
 128  1.6558444e+01 1.03e+00 1.79e-02  -3.8 1.85e+00  -3.0 7.65e-01 4.21e-01h  1
 129  1.6555650e+01 1.14e+00 4.95e-03  -3.8 1.20e+00  -2.6 1.00e+00 1.00e+00h  1
iter    objective    inf_pr   inf_du lg(mu)  ||d||  lg(rg) alpha_du alpha_pr  ls
 130  1.6546329e+01 1.21e+00 3.68e-03  -3.8 1.28e+00  -3.0 1.00e+00 1.00e+00h  1
 131  1.6539824e+01 1.23e+00 1.08e-02  -3.8 2.26e+00    -  6.33e-01 2.97e-01h  1
 132  1.6536534e+01 1.14e+00 1.65e-02  -3.8 1.08e+00    -  3.82e-01 1.00e+00h  1
 133  1.6539110e+01 3.47e-01 2.53e-03  -3.8 5.50e-01    -  8.14e-01 1.00e+00h  1
 134  1.6539707e+01 2.71e-02 2.88e-03  -3.8 1.72e-01    -  1.00e+00 1.00e+00h  1
 135  1.6537717e+01 1.91e-01 4.07e-03  -3.8 4.11e-01    -  1.00e+00 1.00e+00h  1
 136  1.6543643e+01 9.76e-04 3.49e-03  -3.8 8.58e-01    -  1.00e+00 1.00e+00H  1
 137  1.6528288e+01 4.15e-01 4.10e-02  -3.8 1.45e+00    -  6.35e-01 9.61e-01h  1
 138  1.6534081e+01 2.08e-01 1.89e-02  -3.8 3.96e-01  -2.6 7.07e-01 5.00e-01h  2
 139  1.6533513e+01 4.55e-01 8.22e-02  -3.8 2.09e+00    -  1.00e+00 1.25e-01h  4
iter    objective    inf_pr   inf_du lg(mu)  ||d||  lg(rg) alpha_du alpha_pr  ls
 140  1.6534581e+01 1.70e-01 4.65e-02  -3.8 1.33e+00    -  1.00e+00 5.00e-01h  2
 141  1.6541058e+01 6.42e-03 2.70e-02  -3.8 4.96e-01    -  1.00e+00 1.00e+00H  1
 142  1.6540407e+01 1.43e-02 2.38e-02  -3.8 1.08e+00    -  1.00e+00 1.25e-01h  4
 143  1.6537743e+01 2.87e-01 2.98e-02  -3.8 9.77e-01    -  1.00e+00 1.00e+00h  1
 144  1.6516316e+01 4.36e-01 3.73e-02  -3.8 2.26e+00    -  5.20e-01 7.54e-01h  1
 145  1.6527106e+01 3.07e-01 2.08e-02  -3.8 1.11e+00  -3.1 7.24e-01 5.00e-01h  2
 146  1.6531129e+01 5.65e-01 1.25e-02  -3.8 1.23e+00    -  7.98e-01 4.55e-01H  1
 147  1.6532620e+01 4.33e-01 9.60e-03  -3.8 2.22e+00    -  1.71e-01 2.50e-01h  3
 148  1.6532747e+01 5.75e-01 1.06e-02  -3.8 3.31e+00    -  5.38e-01 5.18e-02h  5
 149  1.6532952e+01 5.51e-01 9.99e-03  -3.8 2.78e+00    -  2.72e-01 3.12e-02h  6
iter    objective    inf_pr   inf_du lg(mu)  ||d||  lg(rg) alpha_du alpha_pr  ls
 150  1.6538694e+01 3.17e-01 5.95e-03  -3.8 1.99e+00    -  4.39e-01 1.00e+00H  1
 151  1.6538174e+01 2.77e-01 7.44e-03  -3.8 1.08e+00    -  1.00e+00 1.25e-01h  4
 152  1.6538163e+01 5.60e-01 3.23e-02  -3.8 5.15e-01    -  1.00e+00 5.00e-01h  2
 153  1.6539126e+01 1.77e-01 7.93e-03  -3.8 1.88e-01    -  1.00e+00 1.00e+00h  1
 154  1.6539379e+01 6.87e-02 2.86e-03  -3.8 2.22e-01    -  1.00e+00 1.00e+00h  1
 155  1.6537292e+01 2.12e-01 5.22e-03  -3.8 6.99e-01    -  1.00e+00 1.00e+00h  1
 156  1.6542712e+01 2.99e-03 1.00e-02  -3.8 9.86e-01    -  1.00e+00 1.00e+00H  1
 157  1.6529543e+01 4.38e-01 3.92e-02  -3.8 1.37e+00    -  7.73e-01 1.00e+00h  1
 158  1.6534673e+01 2.23e-01 6.86e-03  -3.8 5.20e-01  -2.7 9.11e-01 5.00e-01h  2
 159  1.6534221e+01 4.49e-01 7.41e-02  -3.8 1.66e+00    -  1.00e+00 1.25e-01h  4
iter    objective    inf_pr   inf_du lg(mu)  ||d||  lg(rg) alpha_du alpha_pr  ls
 160  1.6534844e+01 1.64e-01 4.21e-02  -3.8 1.32e+00    -  1.00e+00 5.00e-01h  2
 161  1.6536588e+01 1.12e-01 2.27e-02  -3.8 4.64e-01    -  1.00e+00 5.00e-01h  2
 162  1.6542883e+01 8.48e-03 2.13e-02  -3.8 3.91e-01    -  1.00e+00 1.00e+00H  1
 163  1.6522570e+01 4.87e-01 3.89e-02  -3.8 1.63e+00    -  7.35e-01 8.19e-01h  1
 164  1.6524706e+01 3.62e-01 2.99e-02  -3.8 2.00e+00    -  9.13e-01 2.50e-01h  3
 165  1.6530143e+01 7.41e-01 3.07e-02  -3.8 8.68e-01    -  1.00e+00 5.00e-01h  2
 166  1.6534112e+01 5.03e-01 1.59e-02  -3.8 5.05e-01    -  1.00e+00 5.00e-01h  2
 167  1.6535883e+01 2.73e-01 1.17e-02  -3.8 6.46e-01    -  1.00e+00 5.00e-01h  2
 168  1.6536645e+01 2.12e-01 8.95e-03  -3.8 3.67e-01    -  1.00e+00 2.50e-01h  3
 169  1.6536799e+01 1.99e-01 8.40e-03  -3.8 2.93e-01    -  1.00e+00 6.25e-02h  5
iter    objective    inf_pr   inf_du lg(mu)  ||d||  lg(rg) alpha_du alpha_pr  ls
 170  1.6536873e+01 1.93e-01 8.14e-03  -3.8 2.71e-01    -  1.00e+00 3.12e-02h  6
 171  1.6539367e+01 1.21e-01 4.80e-03  -3.8 2.60e-01    -  1.00e+00 1.00e+00h  1
 172  1.6526932e+01 5.93e-01 6.19e-02  -3.8 1.42e+00    -  1.00e+00 1.00e+00h  1
 173  1.6532161e+01 3.75e-01 2.72e-01  -3.8 3.69e-01  -1.3 1.56e-01 3.38e-01h  1
 174  1.6531790e+01 6.96e-01 6.72e-01  -3.8 1.88e+00    -  8.71e-01 1.25e-01h  4
 175  1.6533878e+01 3.47e-01 3.28e-01  -3.8 1.49e+00    -  1.00e+00 5.00e-01h  2
 176  1.6540328e+01 5.72e-02 4.61e-02  -3.8 4.25e-01    -  1.00e+00 1.00e+00h  1
 177  1.6532734e+01 2.85e-01 2.50e-02  -3.8 1.69e+00    -  1.00e+00 4.43e-01h  2
 178  1.6532963e+01 2.14e-01 1.89e-02  -3.8 1.25e+00    -  1.00e+00 2.50e-01h  3
 179  1.6540486e+01 1.09e-01 2.20e-02  -3.8 3.42e-01    -  1.00e+00 1.00e+00H  1
iter    objective    inf_pr   inf_du lg(mu)  ||d||  lg(rg) alpha_du alpha_pr  ls
 180  1.6537691e+01 2.53e-01 5.99e-03  -3.8 5.12e-01    -  1.00e+00 1.00e+00h  1
 181  1.6549930e+01 6.69e-02 2.02e-02  -3.8 1.07e+00    -  1.00e+00 1.00e+00H  1
 182  1.6549807e+01 6.48e-02 1.98e-02  -3.8 8.09e-01  -1.8 5.29e-01 2.01e-02h  6
 183  1.6529095e+01 3.72e-01 1.27e-02  -3.8 2.14e+00    -  2.94e-01 4.39e-01h  1
 184  1.6531008e+01 2.78e-01 9.76e-03  -3.8 8.29e-01    -  8.79e-01 2.50e-01h  3
 185  1.6531979e+01 2.43e-01 8.58e-03  -3.8 5.09e-01    -  4.72e-01 1.25e-01h  4
 186  1.6533590e+01 1.88e-01 6.57e-03  -3.8 3.49e-01    -  7.27e-01 2.50e-01h  3
 187  1.6533899e+01 2.03e-01 6.16e-03  -3.8 2.69e-01  -2.3 1.00e+00 6.25e-02h  5
 188  1.6544025e+01 9.57e-02 1.74e-02  -3.8 4.83e-01    -  9.52e-01 1.00e+00H  1
 189  1.6520312e+01 6.70e-01 2.91e-02  -3.8 1.85e+00    -  5.47e-01 6.95e-01h  1
iter    objective    inf_pr   inf_du lg(mu)  ||d||  lg(rg) alpha_du alpha_pr  ls
 190  1.6523011e+01 5.22e-01 2.30e-02  -3.8 2.09e+00    -  4.65e-01 2.22e-01h  3
 191  1.6524666e+01 4.94e-01 2.16e-02  -3.8 3.31e+00  -2.8 2.52e-01 5.39e-02h  4
 192  1.6526991e+01 4.01e-01 1.79e-02  -3.8 4.75e-01  -1.4 2.83e-01 1.92e-01h  3
 193  1.6531182e+01 2.33e-01 1.85e-02  -3.8 8.87e-01    -  9.84e-01 5.00e-01h  2
 194  1.6538744e+01 1.14e-01 1.02e-02  -3.8 3.41e-01    -  1.00e+00 1.00e+00h  1
 195  1.6538580e+01 1.07e-01 9.61e-03  -3.8 1.01e+00    -  1.00e+00 6.25e-02h  5
 196  1.6541996e+01 5.46e-02 1.06e-02  -3.8 3.28e-01    -  1.00e+00 1.00e+00H  1
 197  1.6522256e+01 6.26e-01 4.59e-02  -3.8 1.54e+00    -  7.81e-01 9.50e-01h  1
 198  1.6526330e+01 4.76e-01 4.28e-02  -3.8 5.20e-01  -1.9 2.56e-01 2.14e-01h  2
 199  1.6529490e+01 2.60e-01 2.65e-02  -3.8 1.78e+00    -  9.10e-01 5.00e-01h  2
iter    objective    inf_pr   inf_du lg(mu)  ||d||  lg(rg) alpha_du alpha_pr  ls
 200  1.6543179e+01 7.60e-03 4.70e-02  -3.8 5.86e-01    -  8.41e-01 1.00e+00H  1
 201  1.6530811e+01 3.42e-01 1.28e-02  -3.8 8.72e-01    -  1.00e+00 1.00e+00h  1
 202  1.6531573e+01 2.54e-01 9.70e-03  -3.8 1.46e+00    -  1.00e+00 2.50e-01h  3
 203  1.6553315e+01 4.93e-03 2.90e-02  -3.8 1.16e+00    -  1.00e+00 1.00e+00H  1
 204  1.6527263e+01 2.82e-01 1.75e-02  -3.8 2.33e+00    -  4.28e-01 4.65e-01H  1
 205  1.6529513e+01 2.12e-01 1.99e-02  -3.8 1.21e+00    -  8.64e-01 2.50e-01h  3
 206  1.6531601e+01 1.60e-01 9.72e-03  -3.8 7.89e-01    -  1.00e+00 2.50e-01h  3
 207  1.6539127e+01 2.06e-01 4.17e-03  -3.8 3.88e-01    -  1.00e+00 1.00e+00h  1
 208  1.6546839e+01 5.40e-02 1.50e-02  -3.8 8.77e-01    -  1.00e+00 1.00e+00H  1
 209  1.6524161e+01 3.38e-01 3.29e-02  -3.8 1.87e+00    -  4.79e-01 6.96e-01h  1
iter    objective    inf_pr   inf_du lg(mu)  ||d||  lg(rg) alpha_du alpha_pr  ls
 210  1.6529169e+01 5.99e-01 1.60e-01  -3.8 1.68e+00    -  1.00e+00 5.00e-01h  2
 211  1.6529911e+01 5.09e-01 9.22e-02  -3.8 3.27e-01  -1.5 3.97e-01 1.25e-01h  4
 212  1.6552803e+01 1.22e-02 5.04e-02  -3.8 1.12e+00    -  7.15e-01 1.00e+00H  1
 213  1.6547304e+01 7.31e-02 8.41e-03  -3.8 2.15e-01  -2.0 1.00e+00 1.00e+00h  1
 214  1.6544204e+01 1.48e-01 5.50e-02  -3.8 1.78e+00    -  7.72e-01 1.00e+00H  1
 215  1.6537841e+01 2.23e-01 7.09e-03  -3.8 2.14e-01  -2.4 1.00e+00 1.00e+00h  1
 216  1.6538131e+01 1.68e-01 5.37e-03  -3.8 2.42e-01  -2.9 1.00e+00 2.50e-01h  3
 217  1.6538298e+01 1.26e-01 4.10e-03  -3.8 6.11e-01    -  1.00e+00 2.50e-01h  3
 218  1.6540971e+01 7.65e-02 1.16e-02  -3.8 6.27e-01    -  1.00e+00 1.00e+00H  1
 219  1.6540494e+01 1.11e-01 1.47e-02  -3.8 1.41e+00    -  1.00e+00 6.25e-02h  5
iter    objective    inf_pr   inf_du lg(mu)  ||d||  lg(rg) alpha_du alpha_pr  ls
 220  1.6540482e+01 3.11e-02 2.80e-03  -3.8 2.63e-02  -1.6 1.00e+00 1.00e+00h  1
 221  1.6539509e+01 9.85e-02 3.57e-03  -3.8 9.77e-01    -  1.00e+00 2.50e-01h  3
 222  1.6540615e+01 1.91e-02 2.14e-02  -3.8 3.24e-01    -  1.00e+00 1.00e+00H  1
 223  1.6545625e+01 9.10e-03 6.89e-03  -3.8 1.12e+00    -  1.00e+00 1.00e+00H  1
 224  1.6544982e+01 8.83e-03 6.52e-03  -3.8 2.89e+00    -  4.90e-01 3.12e-02h  6
 225  1.6544676e+01 8.87e-03 6.41e-03  -3.8 2.87e+00    -  1.00e+00 1.56e-02h  7
 226  1.6544223e+01 2.55e-02 1.08e-03  -3.8 8.20e-02  -2.1 1.00e+00 1.00e+00h  1
 227  1.6543579e+01 2.02e-02 1.30e-03  -3.8 1.69e+00    -  8.05e-01 6.25e-02h  5
 228  1.6543245e+01 1.53e-02 2.40e-03  -3.8 1.84e+00    -  1.00e+00 3.12e-02h  6
 229  1.6539757e+01 6.48e-02 2.07e-03  -3.8 1.52e+00    -  9.63e-01 5.00e-01h  2
iter    objective    inf_pr   inf_du lg(mu)  ||d||  lg(rg) alpha_du alpha_pr  ls
 230  1.6539425e+01 7.90e-02 3.15e-03  -3.8 5.19e-01    -  1.00e+00 5.00e-01h  2
 231  1.6540325e+01 1.98e-02 2.84e-02  -3.8 4.23e-01    -  1.00e+00 1.00e+00H  1
 232  1.6540553e+01 5.04e-03 1.35e-02  -3.8 2.43e-01    -  1.00e+00 1.00e+00H  1
 233  1.6539298e+01 3.30e-02 1.04e-02  -3.8 9.38e-01    -  1.00e+00 1.25e-01h  4
 234  1.6539380e+01 5.95e-02 6.46e-03  -3.8 2.25e-01    -  1.00e+00 1.00e+00h  1
 235  1.6538774e+01 7.97e-02 8.08e-03  -3.8 8.61e-01    -  1.00e+00 2.50e-01h  3
 236  1.6544971e+01 5.64e-04 8.14e-02  -3.8 1.15e+00    -  1.00e+00 1.00e+00H  1
 237  1.6544749e+01 2.15e-03 3.15e-02  -3.8 4.56e-02  -1.6 1.00e+00 5.00e-01h  2
 238  1.6544623e+01 5.04e-03 2.74e-02  -3.8 1.48e-01  -2.1 1.00e+00 1.25e-01h  4
 239  1.6542846e+01 9.85e-03 1.66e-02  -3.8 2.85e-01  -2.6 1.00e+00 1.00e+00H  1
iter    objective    inf_pr   inf_du lg(mu)  ||d||  lg(rg) alpha_du alpha_pr  ls
 240  1.6542306e+01 7.44e-02 1.14e-02  -3.8 9.54e-02  -2.2 1.00e+00 1.00e+00h  1
 241  1.6535569e+01 1.92e+00 6.30e-02  -3.8 2.79e+00    -  1.00e+00 8.54e-01h  1
 242  1.6537650e+01 1.58e+00 1.27e-01  -3.8 6.71e-01  -1.7 4.37e-01 5.00e-01h  2
 243  1.6538346e+01 1.41e+00 1.04e-01  -3.8 1.78e-01  -0.4 5.61e-01 1.78e-01h  3
 244  1.6532897e+01 1.02e+00 6.17e-02  -3.8 1.49e+00    -  6.37e-01 3.26e-01h  1
 245  1.6538055e+01 2.96e-01 2.72e-02  -3.8 9.64e-01    -  7.44e-01 1.00e+00h  1
 246  1.6539656e+01 1.77e-01 1.29e-01  -3.8 4.75e-02  -0.9 1.00e+00 1.00e+00h  1
 247  1.6539606e+01 3.33e-02 4.37e-02  -3.8 3.50e-02  -1.4 1.00e+00 1.00e+00h  1
 248  1.6539681e+01 6.96e-03 1.06e-02  -3.8 7.33e-03  -0.9 1.00e+00 1.00e+00h  1
 249  1.6539256e+01 4.21e-02 1.77e-02  -3.8 3.57e-01    -  1.00e+00 5.00e-01h  2
iter    objective    inf_pr   inf_du lg(mu)  ||d||  lg(rg) alpha_du alpha_pr  ls
 250  1.6537834e+01 2.60e-01 3.42e-02  -3.8 5.58e-01    -  1.00e+00 1.00e+00h  1
 251  1.6539193e+01 9.80e-02 4.74e-02  -3.8 4.96e-01    -  1.00e+00 1.00e+00h  1
 252  1.6518657e+01 1.35e+00 7.82e-02  -3.8 1.63e+00    -  7.91e-01 9.87e-01h  1
 253  1.6523088e+01 8.42e-01 2.22e-01  -3.8 6.12e-01  -1.4 1.66e-01 3.80e-01h  1
 254  1.6525300e+01 7.36e-01 2.18e-01  -3.8 6.00e-01  -1.0 2.22e-01 1.30e-01h  1
 255  1.6527349e+01 6.64e-01 1.45e-01  -3.8 2.87e-01  -0.6 2.92e-01 9.95e-02h  1
 256  1.6526660e+01 5.79e-01 1.25e-01  -3.8 1.64e+00    -  7.94e-01 1.28e-01h  1
 257  1.6531110e+01 2.89e-01 5.19e-02  -3.8 1.57e+00    -  1.00e+00 5.00e-01h  2
 258  1.6535352e+01 1.55e-01 2.18e-02  -3.8 5.38e-01    -  1.00e+00 5.00e-01h  2
 259  1.6537431e+01 1.02e-01 1.06e-02  -3.8 4.39e-01    -  1.00e+00 5.00e-01h  2
iter    objective    inf_pr   inf_du lg(mu)  ||d||  lg(rg) alpha_du alpha_pr  ls
 260  1.6539956e+01 1.71e-02 6.66e-03  -3.8 4.52e-01    -  1.00e+00 1.00e+00H  1
 261  1.6540821e+01 3.25e-03 5.24e-03  -3.8 2.22e-01    -  1.00e+00 1.00e+00H  1
 262  1.6526830e+01 7.09e-01 4.75e-02  -3.8 1.28e+00    -  1.00e+00 1.00e+00h  1
 263  1.6529801e+01 3.47e-01 3.03e-02  -3.8 1.77e+00    -  9.87e-01 5.00e-01h  2
 264  1.6533701e+01 6.90e-01 4.22e-02  -3.8 6.51e-01    -  1.00e+00 5.00e-01h  2
 265  1.6536276e+01 4.11e-01 2.38e-02  -3.8 4.06e-01    -  1.00e+00 5.00e-01h  2
 266  1.6537639e+01 2.62e-01 1.27e-02  -3.8 3.17e-01    -  1.00e+00 5.00e-01h  2
 267  1.6534154e+01 3.55e-01 1.81e-02  -3.8 9.41e-01    -  1.00e+00 5.00e-01h  2
 268  1.6535228e+01 1.83e-01 1.23e-02  -3.8 9.71e-01    -  1.00e+00 5.00e-01h  2
 269  1.6542236e+01 2.35e-03 2.58e-02  -3.8 6.31e-01    -  1.00e+00 1.00e+00H  1
iter    objective    inf_pr   inf_du lg(mu)  ||d||  lg(rg) alpha_du alpha_pr  ls
 270  1.6541169e+01 3.32e-01 5.33e-02  -3.8 1.36e+00    -  1.00e+00 1.25e-01h  4
 271  1.6538016e+01 1.31e-01 1.92e-02  -3.8 6.95e-01    -  1.00e+00 1.00e+00h  1
 272  1.6536809e+01 1.83e-01 8.09e-03  -3.8 1.10e+00    -  1.00e+00 5.00e-01h  2
 273  1.6540991e+01 1.25e-01 4.96e-02  -3.8 5.29e-01    -  1.00e+00 1.00e+00H  1
 274  1.6519754e+01 9.53e-01 6.33e-02  -3.8 1.44e+00    -  7.47e-01 1.00e+00h  1
 275  1.6524228e+01 6.01e-01 5.11e-02  -3.8 2.29e+00    -  5.58e-01 5.00e-01h  2
 276  1.6530353e+01 6.19e-01 1.48e-01  -3.8 3.27e-01  -1.0 4.90e-01 5.00e-01h  2
 277  1.6532967e+01 3.69e-01 9.84e-02  -3.8 1.89e-01  -0.6 9.07e-01 2.50e-01h  3
 278  1.6533853e+01 3.21e-01 8.49e-02  -3.8 2.21e-01  -1.1 4.91e-01 1.24e-01h  3
 279  1.6534373e+01 2.91e-01 7.74e-02  -3.8 2.11e-01  -1.6 1.00e+00 9.13e-02h  4
iter    objective    inf_pr   inf_du lg(mu)  ||d||  lg(rg) alpha_du alpha_pr  ls
 280  1.6534334e+01 2.88e-01 1.99e-01  -3.8 2.44e+00  -0.2 1.97e-01 6.49e-03h  6
 281  1.6534384e+01 2.86e-01 1.98e-01  -3.8 2.04e-01   0.2 5.53e-01 8.53e-03h  6
 282  1.6538115e+01 6.07e-01 4.90e-01  -3.8 2.49e-01  -0.3 1.00e+00 4.40e-01H  1
 283  1.6540200e+01 3.20e-01 2.73e-01  -3.8 3.77e-01  -0.8 1.00e+00 5.40e-01h  1
 284  1.6539558e+01 3.14e-01 2.68e-01  -3.8 5.48e+01    -  7.82e-02 1.82e-02h  2
 285  1.6541904e+01 4.32e-01 3.06e-01  -3.8 1.86e-01  -1.2 1.00e+00 1.00e+00h  1
 286  1.6541942e+01 1.70e-01 3.81e-01  -3.8 2.33e-02   0.1 1.00e+00 1.00e+00h  1
 287  1.6542087e+01 9.40e-02 2.76e-01  -3.8 1.55e-02   0.5 1.00e+00 1.00e+00h  1
 288  1.6542109e+01 4.08e-02 1.47e-01  -3.8 1.07e-02   0.9 1.00e+00 1.00e+00h  1
 289  1.6542156e+01 6.42e-03 2.78e-02  -3.8 3.57e-03   0.5 1.00e+00 1.00e+00h  1
iter    objective    inf_pr   inf_du lg(mu)  ||d||  lg(rg) alpha_du alpha_pr  ls
 290  1.6538826e+01 2.26e-02 5.33e-02  -3.8 4.24e-01    -  1.00e+00 3.16e-01h  1
 291  1.6539926e+01 7.23e-02 1.29e-02  -3.8 3.90e-01    -  1.00e+00 1.00e+00h  1
 292  1.6540335e+01 2.93e-02 2.66e-02  -3.8 2.75e-02  -0.0 1.00e+00 1.00e+00h  1
 293  1.6539809e+01 2.58e-02 1.05e-02  -3.8 5.37e-02    -  1.00e+00 1.00e+00h  1
 294  1.6539982e+01 1.55e-03 1.78e-03  -3.8 4.48e-03  -0.5 1.00e+00 1.00e+00h  1
 295  1.6539728e+01 1.08e-01 1.74e-02  -3.8 3.56e-01    -  1.00e+00 1.00e+00h  1
 296  1.6539795e+01 4.02e-03 2.60e-03  -3.8 9.19e-03  -1.0 1.00e+00 1.00e+00h  1
 297  1.6539503e+01 7.88e-02 2.07e-03  -3.8 3.72e-01    -  1.00e+00 1.00e+00h  1
 298  1.6539629e+01 2.13e-02 1.19e-03  -3.8 1.03e-01    -  1.00e+00 1.00e+00h  1
 299  1.6539635e+01 1.91e-03 1.01e-04  -3.8 1.55e-03    -  1.00e+00 1.00e+00h  1
iter    objective    inf_pr   inf_du lg(mu)  ||d||  lg(rg) alpha_du alpha_pr  ls
 300  1.6539636e+01 1.88e-05 2.49e-06  -3.8 7.59e-04    -  1.00e+00 1.00e+00h  1
 301  1.6530645e+01 7.54e-02 5.62e-03  -5.7 4.23e-01    -  8.95e-01 6.01e-01f  1
 302  1.6528192e+01 6.18e-02 7.93e-03  -5.7 4.32e-01    -  7.73e-01 5.35e-01h  1
 303  1.6526825e+01 2.51e-02 1.83e-03  -5.7 2.87e-01    -  7.34e-01 7.63e-01h  1
 304  1.6526438e+01 1.77e-01 3.74e-03  -5.7 8.03e-02    -  1.00e+00 1.00e+00h  1
 305  1.6526230e+01 1.34e-01 2.12e-03  -5.7 1.50e-01    -  8.33e-01 1.00e+00h  1
 306  1.6525883e+01 3.82e-01 1.04e-02  -5.7 7.16e-01    -  1.00e+00 2.78e-01h  1
 307  1.6524363e+01 1.87e-01 3.14e-02  -5.7 2.43e-01    -  5.74e-01 1.00e+00h  1
 308  1.6524238e+01 1.82e-01 3.08e-02  -5.7 3.61e+00    -  1.91e-01 1.70e-02h  1
 309  1.6524159e+01 8.53e-01 2.07e-02  -5.7 1.16e+00    -  4.80e-01 2.94e-01f  1
iter    objective    inf_pr   inf_du lg(mu)  ||d||  lg(rg) alpha_du alpha_pr  ls
 310  1.6519431e+01 3.27e-01 9.93e-03  -5.7 4.57e-01    -  1.29e-02 5.90e-01h  1
 311  1.6524592e+01 1.14e-01 2.49e-03  -5.7 8.87e-02    -  8.49e-01 1.00e+00h  1
 312  1.6526385e+01 7.42e-02 4.14e-03  -5.7 2.72e-01    -  3.03e-01 3.56e-01H  1
 313  1.6526344e+01 6.24e-02 3.48e-03  -5.7 2.53e-01    -  1.00e+00 1.60e-01h  1
 314  1.6526302e+01 1.04e-01 7.99e-04  -5.7 2.62e-01    -  1.00e+00 1.00e+00f  1
 315  1.6526279e+01 9.06e-02 1.50e-03  -5.7 2.54e-01    -  1.00e+00 1.25e-01h  4
 316  1.6526456e+01 7.84e-03 3.34e-04  -5.7 2.97e-02    -  1.00e+00 1.00e+00h  1
 317  1.6526517e+01 2.59e-04 2.89e-04  -5.7 7.06e-03    -  1.00e+00 1.00e+00H  1
 318  1.6526516e+01 1.26e-03 2.12e-04  -5.7 7.65e-03    -  1.00e+00 1.00e+00h  1
 319  1.6526517e+01 7.45e-04 2.19e-05  -5.7 2.14e-03    -  1.00e+00 1.00e+00h  1
iter    objective    inf_pr   inf_du lg(mu)  ||d||  lg(rg) alpha_du alpha_pr  ls
 320  1.6526517e+01 1.52e-05 3.72e-06  -5.7 6.31e-04    -  1.00e+00 1.00e+00h  1
 321  1.6526414e+01 3.70e-04 8.40e-05  -7.0 1.76e-02    -  9.95e-01 9.20e-01h  1
 322  1.6526406e+01 2.54e-05 7.04e-07  -7.0 4.63e-03    -  1.00e+00 1.00e+00h  1
 323  1.6526406e+01 4.60e-08 1.44e-08  -7.0 5.19e-04    -  1.00e+00 1.00e+00h  1

Number of Iterations....: 323

                                   (scaled)                 (unscaled)
Objective...............:   1.6526406120092069e+01    1.6526406120092069e+01
Dual infeasibility......:   1.4389250882059445e-08    1.4389250882059445e-08
Constraint violation....:   4.5959271055551199e-08    4.5959271055551199e-08
Variable bound violation:   0.0000000000000000e+00    0.0000000000000000e+00
Complementarity.........:   9.6387492126541388e-08    9.6387492126541388e-08
Overall NLP error.......:   9.6387492126541388e-08    9.6387492126541388e-08


Number of objective function evaluations             = 713
Number of objective gradient evaluations             = 324
Number of equality constraint evaluations            = 713
Number of inequality constraint evaluations          = 713
Number of equality constraint Jacobian evaluations   = 324
Number of inequality constraint Jacobian evaluations = 324
Number of Lagrangian Hessian evaluations             = 323
Total seconds in IPOPT                               = 41.851

EXIT: Optimal Solution Found.
      solver  :   t_proc      (avg)   t_wall      (avg)    n_eval
       nlp_f  |  19.81ms ( 27.79us)  19.89ms ( 27.89us)       713
       nlp_g  |   2.31 s (  3.24ms)   2.32 s (  3.26ms)       713
  nlp_grad_f  |  14.67ms ( 45.14us)  14.74ms ( 45.36us)       325
  nlp_hess_l  |  27.69 s ( 85.73ms)  27.83 s ( 86.16ms)       323
   nlp_jac_g  |   7.58 s ( 23.33ms)   7.62 s ( 23.45ms)       325
       total  |  41.64 s ( 41.64 s)  41.85 s ( 41.85 s)         1
  Success: True
  Cost: 16.5264
  Iterations: 323
  Solve time: 48.55 s
  Max obstacle slack: 0.0000e+00
  Min obstacle clearance: inf m
  Accepted: True

Accepted attempt: baseline

Generating plots...
  Saved: /run/media/saveas/Secondary-Storage/Masters/CS234/CS234_Reinforcement_Learning/Final Project/CS234_Final_Project/results/trajectory_optimization/nlp/TRACK1_280m/base/ipopt_single_stage_trajectory.png
  Saved: /run/media/saveas/Secondary-Storage/Masters/CS234/CS234_Reinforcement_Learning/Final Project/CS234_Final_Project/results/trajectory_optimization/nlp/TRACK1_280m/base/ipopt_single_stage_states.png
  Saved: /run/media/saveas/Secondary-Storage/Masters/CS234/CS234_Reinforcement_Learning/Final Project/CS234_Final_Project/results/trajectory_optimization/nlp/TRACK1_280m/base/ipopt_single_stage_controls.png

Generating animation...
